c CNF file corresponding to a (partial) station packing problem.
p cnf 2286 184
1 2 3 4 5 6 7 8 9 10 11 12 13 14 0
-1 -2 0
-1 -3 0
-1 -4 0
-1 -5 0
-1 -6 0
-1 -7 0
-1 -8 0
-1 -9 0
-1 -10 0
-1 -11 0
-1 -12 0
-1 -13 0
-1 -14 0
-2 -3 0
-2 -4 0
-2 -5 0
-2 -6 0
-2 -7 0
-2 -8 0
-2 -9 0
-2 -10 0
-2 -11 0
-2 -12 0
-2 -13 0
-2 -14 0
-3 -4 0
-3 -5 0
-3 -6 0
-3 -7 0
-3 -8 0
-3 -9 0
-3 -10 0
-3 -11 0
-3 -12 0
-3 -13 0
-3 -14 0
-4 -5 0
-4 -6 0
-4 -7 0
-4 -8 0
-4 -9 0
-4 -10 0
-4 -11 0
-4 -12 0
-4 -13 0
-4 -14 0
-5 -6 0
-5 -7 0
-5 -8 0
-5 -9 0
-5 -10 0
-5 -11 0
-5 -12 0
-5 -13 0
-5 -14 0
-6 -7 0
-6 -8 0
-6 -9 0
-6 -10 0
-6 -11 0
-6 -12 0
-6 -13 0
-6 -14 0
-7 -8 0
-7 -9 0
-7 -10 0
-7 -11 0
-7 -12 0
-7 -13 0
-7 -14 0
-8 -9 0
-8 -10 0
-8 -11 0
-8 -12 0
-8 -13 0
-8 -14 0
-9 -10 0
-9 -11 0
-9 -12 0
-9 -13 0
-9 -14 0
-10 -11 0
-10 -12 0
-10 -13 0
-10 -14 0
-11 -12 0
-11 -13 0
-11 -14 0
-12 -13 0
-12 -14 0
-13 -14 0
2273 2274 2275 2276 2277 2278 2279 2280 2281 2282 2283 2284 2285 2286 0
-2273 -2274 0
-2273 -2275 0
-2273 -2276 0
-2273 -2277 0
-2273 -2278 0
-2273 -2279 0
-2273 -2280 0
-2273 -2281 0
-2273 -2282 0
-2273 -2283 0
-2273 -2284 0
-2273 -2285 0
-2273 -2286 0
-2274 -2275 0
-2274 -2276 0
-2274 -2277 0
-2274 -2278 0
-2274 -2279 0
-2274 -2280 0
-2274 -2281 0
-2274 -2282 0
-2274 -2283 0
-2274 -2284 0
-2274 -2285 0
-2274 -2286 0
-2275 -2276 0
-2275 -2277 0
-2275 -2278 0
-2275 -2279 0
-2275 -2280 0
-2275 -2281 0
-2275 -2282 0
-2275 -2283 0
-2275 -2284 0
-2275 -2285 0
-2275 -2286 0
-2276 -2277 0
-2276 -2278 0
-2276 -2279 0
-2276 -2280 0
-2276 -2281 0
-2276 -2282 0
-2276 -2283 0
-2276 -2284 0
-2276 -2285 0
-2276 -2286 0
-2277 -2278 0
-2277 -2279 0
-2277 -2280 0
-2277 -2281 0
-2277 -2282 0
-2277 -2283 0
-2277 -2284 0
-2277 -2285 0
-2277 -2286 0
-2278 -2279 0
-2278 -2280 0
-2278 -2281 0
-2278 -2282 0
-2278 -2283 0
-2278 -2284 0
-2278 -2285 0
-2278 -2286 0
-2279 -2280 0
-2279 -2281 0
-2279 -2282 0
-2279 -2283 0
-2279 -2284 0
-2279 -2285 0
-2279 -2286 0
-2280 -2281 0
-2280 -2282 0
-2280 -2283 0
-2280 -2284 0
-2280 -2285 0
-2280 -2286 0
-2281 -2282 0
-2281 -2283 0
-2281 -2284 0
-2281 -2285 0
-2281 -2286 0
-2282 -2283 0
-2282 -2284 0
-2282 -2285 0
-2282 -2286 0
-2283 -2284 0
-2283 -2285 0
-2283 -2286 0
-2284 -2285 0
-2284 -2286 0
-2285 -2286 0
